c 3 - XORSAT
p cnf 40 160
26 29 31 0
-26 -29 31 0
-26 29 -31 0
26 -29 -31 0
8 25 10 0
-8 -25 10 0
-8 25 -10 0
8 -25 -10 0
5 16 38 0
-5 -16 38 0
-5 16 -38 0
5 -16 -38 0
1 12 19 0
-1 -12 19 0
-1 12 -19 0
1 -12 -19 0
33 24 35 0
-33 -24 35 0
-33 24 -35 0
33 -24 -35 0
-20 -23 -36 0
-20 23 36 0
20 -23 36 0
20 23 -36 0
12 18 19 0
-12 -18 19 0
-12 18 -19 0
12 -18 -19 0
16 32 36 0
-16 -32 36 0
-16 32 -36 0
16 -32 -36 0
-8 -15 -17 0
-8 15 17 0
8 -15 17 0
8 15 -17 0
-19 -21 -33 0
-19 21 33 0
19 -21 33 0
19 21 -33 0
-3 -24 -31 0
-3 24 31 0
3 -24 31 0
3 24 -31 0
6 7 24 0
-6 -7 24 0
-6 7 -24 0
6 -7 -24 0
-1 -10 -11 0
-1 10 11 0
1 -10 11 0
1 10 -11 0
-13 -37 -39 0
-13 37 39 0
13 -37 39 0
13 37 -39 0
-5 -32 -36 0
-5 32 36 0
5 -32 36 0
5 32 -36 0
22 29 31 0
-22 -29 31 0
-22 29 -31 0
22 -29 -31 0
-3 -23 -27 0
-3 23 27 0
3 -23 27 0
3 23 -27 0
-12 -18 -23 0
-12 18 23 0
12 -18 23 0
12 18 -23 0
13 26 27 0
-13 -26 27 0
-13 26 -27 0
13 -26 -27 0
-2 -3 -22 0
-2 3 22 0
2 -3 22 0
2 3 -22 0
-4 -9 -26 0
-4 9 26 0
4 -9 26 0
4 9 -26 0
30 32 35 0
-30 -32 35 0
-30 32 -35 0
30 -32 -35 0
-38 -21 -39 0
-38 21 39 0
38 -21 39 0
38 21 -39 0
-6 -11 -20 0
-6 11 20 0
6 -11 20 0
6 11 -20 0
2 11 14 0
-2 -11 14 0
-2 11 -14 0
2 -11 -14 0
8 14 21 0
-8 -14 21 0
-8 14 -21 0
8 -14 -21 0
7 9 39 0
-7 -9 39 0
-7 9 -39 0
7 -9 -39 0
-34 -37 -40 0
-34 37 40 0
34 -37 40 0
34 37 -40 0
17 28 33 0
-17 -28 33 0
-17 28 -33 0
17 -28 -33 0
1 34 37 0
-1 -34 37 0
-1 34 -37 0
1 -34 -37 0
6 15 40 0
-6 -15 40 0
-6 15 -40 0
6 -15 -40 0
4 28 34 0
-4 -28 34 0
-4 28 -34 0
4 -28 -34 0
-2 -27 -30 0
-2 27 30 0
2 -27 30 0
2 27 -30 0
-38 -40 -20 0
-38 40 20 0
38 -40 20 0
38 40 -20 0
-25 -29 -30 0
-25 29 30 0
25 -29 30 0
25 29 -30 0
5 9 22 0
-5 -9 22 0
-5 9 -22 0
5 -9 -22 0
7 10 13 0
-7 -10 13 0
-7 10 -13 0
7 -10 -13 0
-15 -16 -28 0
-15 16 28 0
15 -16 28 0
15 16 -28 0
4 14 17 0
-4 -14 17 0
-4 14 -17 0
4 -14 -17 0
18 25 35 0
-18 -25 35 0
-18 25 -35 0
18 -25 -35 0
